
<<< setup


<<< generate

Version identifier: 12.10.0.0 | 2019-11-26 | 843d4de2ae
CPXPARAM_TimeLimit                               1200
Tried aggregator 3 times.
MIP Presolve eliminated 5106896 rows and 2867991 columns.
MIP Presolve modified 426784 coefficients.
Aggregator did 728 substitutions.
Reduced MIP has 135426 rows, 142831 columns, and 909962 nonzeros.
Reduced MIP has 142781 binaries, 0 generals, 0 SOSs, and 0 indicators.
Presolve time = 7.64 sec. (4832.73 ticks)
Found incumbent of value 4196.000000 after 10.31 sec. (6106.01 ticks)
Elapsed time = 56.75 sec. (10000.52 ticks) for 27% of probing (2940 vars fixed)
Probing fixed 2940 vars, tightened 0 bounds.
Probing time = 77.69 sec. (13471.62 ticks)
Tried aggregator 1 time.
Detecting symmetries...
MIP Presolve eliminated 2940 rows and 2940 columns.
MIP Presolve modified 2122 coefficients.
Reduced MIP has 132486 rows, 139891 columns, and 889989 nonzeros.
Reduced MIP has 139841 binaries, 0 generals, 0 SOSs, and 0 indicators.
Presolve time = 1.55 sec. (666.06 ticks)
Probing time = 0.42 sec. (67.86 ticks)
Clique table members: 498086.
MIP emphasis: balance optimality and feasibility.
MIP search method: dynamic search.
Parallel mode: deterministic, using up to 4 threads.
Root relaxation solution time = 21.74 sec. (7249.15 ticks)

        Nodes                                         Cuts/
   Node  Left     Objective  IInf  Best Integer    Best Bound    ItCnt     Gap

*     0+    0                         4196.0000   116266.0000              --- 
      0     0    62470.0000   738     4196.0000    62470.0000    15760     --- 
      0     0    62470.0000   738     4196.0000       Cuts: 4    15803     --- 
      0     0    62470.0000   738     4196.0000    Cuts: 5995    22145     --- 
      0     0    62470.0000   738     4196.0000      Cuts: 64    27042     --- 
*     0+    0                         7496.0000    62470.0000           733.38%
*     0+    0                        19944.0000    62470.0000           213.23%
      0     0    62470.0000   738    19944.0000    Cuts: 9949    37858  213.23%
Heuristic still looking.
      0     2    62470.0000   202    19944.0000    62470.0000    37858  213.23%
Elapsed time = 551.55 sec. (232371.86 ticks, tree = 0.02 MB, solutions = 3)
      1     3    62470.0000   492    19944.0000    62470.0000    54755  213.23%
      2     4    62470.0000   439    19944.0000    62470.0000    68370  213.23%
      3     5    62470.0000   430    19944.0000    62470.0000    69496  213.23%
      4     6    62470.0000   394    19944.0000    62470.0000    72022  213.23%
      5     4    62470.0000   484    19944.0000    62470.0000    67936  213.23%
      6     7    62470.0000   411    19944.0000    62470.0000   124759  213.23%
      7     3    62470.0000   310    19944.0000    62470.0000    68508  213.23%
      8     5    62470.0000   468    19944.0000    62470.0000    89821  213.23%
      9     8    62470.0000   447    19944.0000    62470.0000   132743  213.23%
     10    11    62470.0000   457    19944.0000    62470.0000   216328  213.23%
Elapsed time = 838.30 sec. (322584.51 ticks, tree = 0.22 MB, solutions = 3)
     11    12    62470.0000   464    19944.0000    62470.0000   219148  213.23%
     12    12    62470.0000   428    19944.0000    62470.0000   250761  213.23%
     13     9    62470.0000   390    19944.0000    62470.0000   159832  213.23%
     14    10    62470.0000   325    19944.0000    62470.0000   184445  213.23%
     15    13    62470.0000   457    19944.0000    62470.0000   270281  213.23%
     16    14    62470.0000   505    19944.0000    62470.0000   287040  213.23%
     17    15    62470.0000   437    19944.0000    62470.0000   302637  213.23%
     19    20    62470.0000   467    19944.0000    62470.0000   363820  213.23%
     20    18    62470.0000   436    19944.0000    62470.0000   337971  213.23%
     21    21    62470.0000   432    19944.0000    62470.0000   367949  213.23%
Elapsed time = 964.05 sec. (361756.71 ticks, tree = 3.67 MB, solutions = 3)
     23    22    62470.0000   395    19944.0000    62470.0000   384388  213.23%
     27    20    62470.0000   479    19944.0000    62470.0000   363700  213.23%
     29    29    62470.0000   325    19944.0000    62470.0000   450080  213.23%
     30    30    62470.0000   319    19944.0000    62470.0000   453606  213.23%
     31    31    62470.0000   298    19944.0000    62470.0000   454003  213.23%
     35    34    62470.0000   328    19944.0000    62470.0000   456208  213.23%
     37    36    62470.0000   327    19944.0000    62470.0000   458064  213.23%
     40    39    62470.0000   295    19944.0000    62470.0000   461084  213.23%
     43    42    62470.0000   308    19944.0000    62470.0000   462739  213.23%
     47    46    62470.0000   257    19944.0000    62470.0000   464357  213.23%
Elapsed time = 1060.75 sec. (392005.82 ticks, tree = 8.03 MB, solutions = 3)
     50    49    62470.0000   262    19944.0000    62470.0000   465666  213.23%
     54    51    62470.0000   297    19944.0000    62470.0000   466893  213.23%
     58    54    62470.0000   274    19944.0000    62470.0000   468755  213.23%
     61    59    62470.0000   308    19944.0000    62470.0000   532976  213.23%
     64    61    62470.0000   289    19944.0000    62470.0000   533886  213.23%
     67    63    62470.0000   261    19944.0000    62470.0000   536254  213.23%
     69    65    62470.0000   217    19944.0000    62470.0000   538802  213.23%
     70    30    62470.0000   410    19944.0000    62470.0000   532893  213.23%
     72    66    62470.0000   220    19944.0000    62470.0000   546570  213.23%
     73    67    62470.0000   339    19944.0000    62470.0000   554527  213.23%
Elapsed time = 1184.02 sec. (419982.86 ticks, tree = 12.64 MB, solutions = 3)
     74    62    62470.0000   415    19944.0000    62470.0000   588872  213.23%
     76    71    62470.0000   207    19944.0000    62470.0000   589571  213.23%
     77    72    62470.0000   389    19944.0000    62470.0000   615231  213.23%

Implied bound cuts applied:  513
Flow cuts applied:  74
Mixed integer rounding cuts applied:  1
Gomory fractional cuts applied:  1

Root node processing (before b&c):
  Real time             =  537.06 sec. (228646.49 ticks)
Parallel b&c, 4 threads:
  Real time             =  663.67 sec. (209744.45 ticks)
  Sync time (average)   =  111.06 sec.
  Wait time (average)   =    0.00 sec.
                          ------------
Total (root+branch&cut) = 1200.74 sec. (438390.94 ticks)

<<< solve


OBJECTIVE: 19944

<<< post process


<<< done

